4,12,3,8,10,3,7,8,11,0,7,7,4,10,0,14,6,7,4,6,12,10,10,7,5,7,13,2,0,4,6,3,12,11,9,9,3,8,11,5,1,13,13,11,9,1,12,2,0,8
7,14,8,13,6,14,4,2,2,8,2,1,5,14,3,0,3,8,2,7,1,0,3,13,8,0,14,7,13,0,10,1,7,13,11,12,13,9,1,1,2,8,4,8,4,0,10,1,4,7